qbf_easy_train/easy_3280_UNSAT.qdimacs
p cnf 39 115
a 17 21 25 0
e 1 2 3 4 5 6 7 8 9 10 11 12 13 14 15 16 18 19 20 22 23 24 26 27 28 29 30 31 32 33 34 35 36 37 38 39 0
-2 -3 -4 0
2 3 -4 0
-2 3 4 0
2 -3 4 0
4 -1 -5 0
-4 1 -5 0
4 1 5 0
-4 -1 5 0
-1 5 -6 0
1 -5 -6 0
-1 -5 6 0
1 5 6 0
-8 -6 0
-8 -7 0
6 7 8 0
-9 -1 0
-9 7 0
1 -7 9 0
10 8 0
10 9 0
-8 -9 -10 0
11 -2 -12 0
-11 2 -12 0
11 2 12 0
-11 -2 12 0
12 -11 -13 0
-12 11 -13 0
12 11 13 0
-12 -11 13 0
-14 -13 0
-14 -2 0
13 2 14 0
14 -13 -15 0
-14 13 -15 0
14 13 15 0
-14 -13 15 0
-16 10 0
-16 15 0
-10 -15 16 0
-17 13 0
-17 -8 0
-13 8 17 0
-16 -17 -18 0
16 17 -18 0
-16 17 18 0
16 -17 18 0
19 -8 0
19 -12 0
8 12 -19 0
20 -21 -22 0
-20 21 -22 0
20 21 22 0
-20 -21 22 0
23 -19 0
23 22 0
19 -22 -23 0
18 23 -24 0
-18 -23 -24 0
18 -23 24 0
-18 23 24 0
25 20 0
25 -9 0
-20 9 -25 0
26 4 0
26 -2 0
-4 2 -26 0
-27 -26 0
-27 -1 0
26 1 27 0
28 25 0
28 -27 0
-25 27 -28 0
-14 -2 -29 0
14 2 -29 0
-14 2 29 0
14 -2 29 0
30 28 0
30 29 0
-28 -29 -30 0
-31 24 0
-31 -30 0
-24 30 31 0
-33 -26 0
-33 32 0
26 -32 33 0
34 -2 0
34 -13 0
2 13 -34 0
35 -11 0
35 34 0
11 -34 -35 0
-33 -35 -36 0
33 35 -36 0
-33 35 36 0
33 -35 36 0
-37 5 0
-37 -34 0
-5 34 37 0
-38 36 0
-38 -37 0
-36 37 38 0
-39 31 0
-39 38 0
-31 -38 39 0
18 -21 1 28 -4 24 0
-31 38 -3 0
-6 9 -26 21 -11 -20 0
-12 -32 -33 -8 -35 0
9 -4 22 -10 0
-16 -11 13 -10 24 -39 -20 -25 0
27 37 7 13 -39 -21 3 0
-24 18 1 8 -31 0
-11 -9 2 -8 0
29 28 -22 16 -3 26 -20 -6 0
39 0
