sat_easy_train/easy_3280_UNSAT.dimacs
p cnf 125 422
3 1 0
3 -2 0
-1 2 -3 0
-4 -5 -6 0
4 5 -6 0
-4 5 6 0
4 -5 6 0
7 6 0
7 -2 0
-6 2 -7 0
8 -7 0
8 5 0
7 -5 -8 0
9 -3 0
9 8 0
3 -8 -9 0
12 -10 0
12 11 0
10 -11 -12 0
14 10 0
14 -13 0
-10 13 -14 0
14 -15 -16 0
-14 15 -16 0
14 15 16 0
-14 -15 16 0
-17 -12 0
-17 16 0
12 -16 17 0
18 -9 0
18 17 0
9 -17 -18 0
13 -19 -20 0
-13 19 -20 0
13 19 20 0
-13 -19 20 0
-22 -20 0
-22 -21 0
20 21 22 0
-23 -1 0
-23 -1 0
1 23 0
-24 -22 0
-24 -23 0
22 23 24 0
-26 -10 0
-26 25 0
10 -25 26 0
-27 -26 0
-27 -11 0
26 11 27 0
-28 -6 0
-28 -19 0
6 19 28 0
-29 2 0
-29 -28 0
-2 28 29 0
27 29 -30 0
-27 -29 -30 0
27 -29 30 0
-27 29 30 0
30 -27 -31 0
-30 27 -31 0
30 27 31 0
-30 -27 31 0
32 -31 0
32 28 0
31 -28 -32 0
-33 30 0
-33 7 0
-30 -7 33 0
-34 -32 0
-34 33 0
32 -33 34 0
24 -34 -35 0
-24 34 -35 0
24 34 35 0
-24 -34 35 0
18 35 -36 0
-18 -35 -36 0
18 -35 36 0
-18 35 36 0
38 -26 0
38 37 0
26 -37 -38 0
-38 25 -39 0
38 -25 -39 0
-38 -25 39 0
38 25 39 0
-41 39 0
-41 40 0
-39 -40 41 0
-42 -7 0
-42 11 0
7 -11 42 0
-43 25 0
-43 -28 0
-25 28 43 0
-37 -44 -45 0
37 44 -45 0
-37 44 45 0
37 -44 45 0
-43 -45 -46 0
43 45 -46 0
-43 45 46 0
43 -45 46 0
47 42 0
47 -46 0
-42 46 -47 0
-48 -41 0
-48 -47 0
41 47 48 0
-49 29 0
-49 29 0
-29 49 0
-50 -10 0
-50 4 0
10 -4 50 0
29 -50 -51 0
-29 50 -51 0
29 50 51 0
-29 -50 51 0
-3 -10 -52 0
3 10 -52 0
-3 10 52 0
3 -10 52 0
-51 -52 -53 0
51 52 -53 0
-51 52 53 0
51 -52 53 0
55 -28 0
55 54 0
28 -54 -55 0
53 -55 -56 0
-53 55 -56 0
53 55 56 0
-53 -55 56 0
-57 49 0
-57 56 0
-49 -56 57 0
27 -1 -58 0
-27 1 -58 0
27 1 58 0
-27 -1 58 0
-59 58 0
-59 -7 0
-58 7 59 0
60 -57 0
60 59 0
57 -59 -60 0
61 -48 0
61 60 0
48 -60 -61 0
-62 -36 0
-62 -61 0
36 61 62 0
29 -20 -63 0
-29 20 -63 0
29 20 63 0
-29 -20 63 0
-64 63 0
-64 -21 0
-63 21 64 0
-32 -13 -65 0
32 13 -65 0
-32 13 65 0
32 -13 65 0
66 -65 0
66 54 0
65 -54 -66 0
-64 66 -67 0
64 -66 -67 0
-64 -66 67 0
64 66 67 0
62 67 -68 0
-62 -67 -68 0
62 -67 68 0
-62 67 68 0
-52 20 -69 0
52 -20 -69 0
-52 -20 69 0
52 20 69 0
70 11 0
70 -26 0
-11 26 -70 0
71 19 0
71 70 0
-19 -70 -71 0
-71 -27 -72 0
71 27 -72 0
-71 27 72 0
71 -27 72 0
73 -72 0
73 -14 0
72 14 -73 0
-74 44 0
-74 -71 0
-44 71 74 0
-75 -1 0
-75 45 0
1 -45 75 0
76 -74 0
76 -75 0
74 75 -76 0
-77 26 0
-77 65 0
-26 -65 77 0
76 77 -78 0
-76 -77 -78 0
76 -77 78 0
-76 77 78 0
73 78 -79 0
-73 -78 -79 0
73 -78 79 0
-73 78 79 0
-69 79 -80 0
69 -79 -80 0
-69 -79 80 0
69 79 80 0
-81 31 0
-81 -58 0
-31 58 81 0
27 20 -82 0
-27 -20 -82 0
27 -20 82 0
-27 20 82 0
-83 82 0
-83 2 0
-82 -2 83 0
84 -81 0
84 -83 0
81 83 -84 0
80 84 -85 0
-80 -84 -85 0
80 -84 85 0
-80 84 85 0
-86 -15 0
-86 -20 0
15 20 86 0
30 86 -87 0
-30 -86 -87 0
30 -86 87 0
-30 86 87 0
-88 -30 0
-88 -87 0
30 87 88 0
-89 -31 0
-89 88 0
31 -88 89 0
26 82 -90 0
-26 -82 -90 0
26 -82 90 0
-26 82 90 0
71 -21 -91 0
-71 21 -91 0
71 21 91 0
-71 -21 91 0
-92 -91 0
-92 -3 0
91 3 92 0
-93 90 0
-93 92 0
-90 -92 93 0
-94 19 0
-94 -31 0
-19 31 94 0
-95 -32 0
-95 37 0
32 -37 95 0
94 -95 -96 0
-94 95 -96 0
94 95 96 0
-94 -95 96 0
-97 93 0
-97 -96 0
-93 96 97 0
-89 97 -98 0
89 -97 -98 0
-89 -97 98 0
89 97 98 0
99 85 0
99 -98 0
-85 98 -99 0
100 -68 0
100 -99 0
68 99 -100 0
101 29 0
101 63 0
-29 -63 -101 0
102 -101 0
102 -71 0
101 71 -102 0
-103 -82 0
-103 -102 0
82 102 103 0
-104 10 0
-104 82 0
-10 -82 104 0
105 -103 0
105 -104 0
103 104 -105 0
19 4 -106 0
-19 -4 -106 0
19 -4 106 0
-19 4 106 0
-107 45 0
-107 102 0
-45 -102 107 0
-106 107 -108 0
106 -107 -108 0
-106 -107 108 0
106 107 108 0
-109 26 0
-109 -4 0
-26 4 109 0
44 -109 -110 0
-44 109 -110 0
44 109 110 0
-44 -109 110 0
4 -110 -111 0
-4 110 -111 0
4 110 111 0
-4 -110 111 0
71 86 -112 0
-71 -86 -112 0
71 -86 112 0
-71 86 112 0
-113 -111 0
-113 -112 0
111 112 113 0
114 -108 0
114 -113 0
108 113 -114 0
105 114 -115 0
-105 -114 -115 0
105 -114 115 0
-105 114 115 0
86 70 -116 0
-86 -70 -116 0
86 -70 116 0
-86 70 116 0
-38 -116 -117 0
38 116 -117 0
-38 116 117 0
38 -116 117 0
-118 -10 0
-118 117 0
10 -117 118 0
120 -119 0
120 25 0
119 -25 -120 0
6 121 0
-6 121 0
120 121 -122 0
-120 -121 -122 0
120 -121 122 0
-120 121 122 0
123 118 0
123 122 0
-118 -122 -123 0
124 -115 0
124 123 0
115 -123 -124 0
-125 -100 0
-125 124 0
100 -124 125 0
-53 -100 39 -68 45 -78 0
111 -97 59 0
24 -44 79 -46 -114 118 0
119 93 -10 -123 0
-90 -5 -85 -63 0
-101 -29 66 0
49 104 -109 -60 0
-25 106 -72 0
-120 -15 98 -4 -93 0
-55 41 16 4 -117 0
63 -69 -16 -91 61 0
62 40 29 0
-63 87 37 34 0
34 -97 7 -54 0
-105 2 -72 -104 52 -113 0
45 69 0
36 -17 -5 39 7 0
18 -73 2 0
83 -84 73 23 36 0
-93 -111 12 -120 96 0
68 -35 45 24 0
-101 10 16 0
6 42 0
63 59 104 51 -28 0
-124 42 67 46 0
103 -29 -125 -31 30 0
-59 22 50 -71 63 99 0
-59 -37 30 10 0
-59 16 -8 0
88 -33 -39 113 0
-55 -75 -18 -31 0
110 18 0
19 66 -74 105 0
85 10 -111 0
114 122 -43 -46 -29 -112 0
-79 -111 -63 118 0
19 99 72 -120 -78 121 0
-34 -14 93 63 -119 0
31 -70 18 2 0
-118 77 -11 -101 0
51 -45 -58 118 0
-3 107 90 85 1 -12 0
49 -105 35 -89 54 0
-46 -49 41 -61 -16 0
-44 9 -85 22 18 0
17 80 55 -82 0
95 65 0
-17 -44 0
-103 60 -11 109 0
88 75 74 0
-80 -108 0
121 -13 -54 -70 0
-116 -58 67 96 28 0
-87 103 92 -81 -112 -69 0
33 78 4 22 84 0
125 0
